NAME : amtsp.45101.tour
COMMENT : Length = 45101
COMMENT : Found by LKH-3 [Keld Helsgaun] Sun Dec 31 23:49:22 2023
TYPE : TOUR
DIMENSION : 92
TOUR_SECTION
1
54
57
56
58
60
53
51
55
52
38
39
36
40
37
68
66
24
67
75
73
71
72
69
29
14
12
4
84
2
92
90
48
50
46
49
47
35
32
31
33
34
70
23
21
22
19
17
16
18
25
20
8
9
6
10
7
85
82
81
83
5
91
88
86
87
80
65
63
61
62
59
64
77
76
78
89
79
43
44
41
45
42
74
28
26
30
27
13
11
15
3
-1
EOF
